
Gurobi 9.1.2 (win64) logging started Tue Dec  7 07:06:03 2021

Gurobi Optimizer version 9.1.2 build v9.1.2rc0 (win64)
Thread count: 8 physical cores, 8 logical processors, using up to 8 threads
Optimize a model with 1 rows, 965 columns and 964 nonzeros
Model fingerprint: 0x6cef54b3
Variable types: 1 continuous, 964 integer (964 binary)
Coefficient statistics:
  Matrix range     [1e+00, 1e+01]
  Objective range  [1e+00, 1e+00]
  Bounds range     [4e+02, 4e+02]
  RHS range        [1e+01, 1e+01]
Presolve time: 0.00s
Presolved: 1 rows, 965 columns, 964 nonzeros
Variable types: 1 continuous, 964 integer (964 binary)

Root simplex log...

Iteration    Objective       Primal Inf.    Dual Inf.      Time
       0   -3.8563035e+02   3.526593e-01   0.000000e+00     77s
       7   -2.8297961e+02   0.000000e+00   0.000000e+00     77s

Root relaxation: objective -2.829796e+02, 7 iterations, 0.00 seconds

    Nodes    |    Current Node    |     Objective Bounds      |     Work
 Expl Unexpl |  Obj  Depth IntInf | Incumbent    BestBd   Gap | It/Node Time

     0     0 -282.97961    0    1          - -282.97961      -     -   76s
H    0     0                       0.9795606 -282.97961      -     -  105s
H    0     0                       0.9787552 -282.97961      -     -  164s
     0     0 -282.97961    0    1    0.97876 -282.97961      -     -  179s
     0     0 -282.97961    0    1    0.97876 -282.97961      -     -  184s
     0     0 -282.97961    0    1    0.97876 -282.97961      -     -  189s
     0     0 -175.79693    0    6    0.97876 -175.79693      -     -  207s
     0     0 -175.79693    0    6    0.97876 -175.79693      -     -  241s
     0     0 -175.79693    0    6    0.97876 -175.79693      -     -  246s
     0     0 -175.79693    0    6    0.97876 -175.79693      -     -  251s
     0     0 -175.79693    0    6    0.97876 -175.79693      -     -  265s
     0     0 -150.87359    0    8    0.97876 -150.87359      -     -  265s
     0     0 -150.87359    0    8    0.97876 -150.87359      -     -  290s
     0     0 -147.04524    0    6    0.97876 -147.04524      -     -  314s
     0     0 -146.86271    0    7    0.97876 -146.86271      -     -  314s
     0     0 -137.52178    0    7    0.97876 -137.52178      -     -  314s
     0     0 -137.52178    0    7    0.97876 -137.52178      -     -  330s
     0     0 -134.44806    0   10    0.97876 -134.44806      -     -  330s
     0     0 -134.24314    0    9    0.97876 -134.24314      -     -  330s
     0     0 -133.45933    0   11    0.97876 -133.45933      -     -  330s
     0     0 -133.45933    0   11    0.97876 -133.45933      -     -  336s
     0     0 -133.45933    0   11    0.97876 -133.45933      -     -  342s
     0     0 -133.45933    0   11    0.97876 -133.45933      -     -  348s
     0     0 -133.45933    0   11    0.97876 -133.45933      -     -  352s
     0     0 -133.45933    0   11    0.97876 -133.45933      -     -  357s
     0     0 -133.45933    0   11    0.97876 -133.45933      -     -  361s
     0     0 -133.45933    0   11    0.97876 -133.45933      -     -  370s
     0     0 -133.45933    0   11    0.97876 -133.45933      -     -  378s
     0     0 -133.45933    0   11    0.97876 -133.45933      -     -  383s
     0     0 -133.45933    0   11    0.97876 -133.45933      -     -  389s
     0     0 -133.45933    0   11    0.97876 -133.45933      -     -  398s
     0     0 -133.45933    0   11    0.97876 -133.45933      -     -  403s
     0     0 -133.45933    0   11    0.97876 -133.45933      -     -  409s
     0     0 -133.45933    0   11    0.97876 -133.45933      -     -  415s
     0     2 -120.09843    0   11    0.97876 -120.09843      -     -  419s
    33    21  -13.02733    5    3    0.97876  -65.30417  6772%   6.0  435s
    63    50  -16.94344    8    3    0.97876  -64.10926  6650%   5.0  454s
   117    69  -42.38621   15   10    0.97876  -64.10926  6650%   4.0  515s
   213   156  -32.42575   25    4    0.97876  -64.10926  6650%   3.8  555s
   381   295  -20.65503   44    3    0.97876  -64.10926  6650%   3.5  610s
   557   417   -8.74880   61    2    0.97876  -59.04602  6133%   3.3  672s
   805   640   -1.03005   77    2    0.97876  -55.14730  5734%   3.4  826s
   973   771     cutoff   80         0.97876  -47.83857  4988%   3.4  864s
  1173   989  -22.28696   24    7    0.97876  -47.83857  4988%   3.6  945s
  1399  1133  -16.28990   54    2    0.97876  -45.86114  4786%   3.6 1008s
  1668  1189   -5.92954   14   11    0.97876  -43.90030  4585%   3.5 1107s
  1670  1190  -33.31741   16    7    0.97876  -43.90030  4585%   3.5 1135s
  1671  1191  -26.06976   18    9    0.97876  -43.90030  4585%   3.5 1194s
  1676  1194   -5.78702   22    6    0.97876  -43.90030  4585%   3.5 1249s
  1679  1196  -22.68841   29   10    0.97876  -43.90030  4585%   3.5 1283s
  1681  1198  -38.77647   13    7    0.97876  -43.90030  4585%   3.5 1301s
  1687  1202  -18.99667   59   10    0.97876  -43.90030  4585%   3.5 1364s
  1688  1204  -43.90030   12   10    0.97876  -43.90030  4585%   3.6 1370s
  1723  1222  -43.90030   17    8    0.97876  -43.90030  4585%   3.7 1376s
  1747  1237  -43.90030   19    7    0.97876  -43.90030  4585%   3.7 1383s
  1767  1241  -19.98896   19    6    0.97876  -43.90030  4585%   3.8 1394s
  1803  1251  -31.54516   22    5    0.97876  -43.90030  4585%   3.8 1427s
  1831  1255  -11.32046   24    7    0.97876  -43.90030  4585%   3.8 1464s
  1869  1267  -19.01645   25    5    0.97876  -43.90030  4585%   3.8 1487s
  1947  1284     cutoff   29         0.97876  -43.90030  4585%   3.8 1539s
  1980  1307  -14.80867   29    -    0.97876  -43.90030  4585%   3.8 1595s
  2044  1330   -9.59164   33    2    0.97876  -43.90030  4585%   3.8 1639s
  2116  1344   -6.20888   37    2    0.97876  -43.90030  4585%   3.7 1677s
  2204  1391   -1.31352   42    -    0.97876  -43.90030  4585%   3.7 1765s
